problems/csplib-prob030/BalancedAcademicCurriculumProblem-models/compact/O0/minion/model-bacp-16-solution000001.solution
language Essence 1.3

letting curr be
        function(1 --> 1, 2 --> 2, 3 --> 3, 4 --> 2, 5 --> 2, 6 --> 1, 7 --> 1, 8 --> 1, 9 --> 1, 10 --> 2, 11 --> 9,
                 12 --> 1, 13 --> 8, 14 --> 1, 15 --> 8, 16 --> 8, 17 --> 8, 18 --> 7, 19 --> 7, 20 --> 7, 21 --> 6,
                 22 --> 6, 23 --> 1, 24 --> 6, 25 --> 6, 26 --> 6, 27 --> 6, 28 --> 9, 29 --> 5, 30 --> 5, 31 --> 5,
                 32 --> 4, 33 --> 10, 34 --> 4, 35 --> 4, 36 --> 4, 37 --> 4, 38 --> 4, 39 --> 2, 40 --> 3, 41 --> 2,
                 42 --> 10, 43 --> 2, 44 --> 3, 45 --> 3, 46 --> 2, 47 --> 2, 48 --> 1, 49 --> 2, 50 --> 1)
