problems/csplib-prob030/BalancedAcademicCurriculumProblem-models/noch/O0/minion/model-bacp-16-solution000001.eprime-solution
language ESSENCE' 1.0

letting curr_Function1D be
        [1, 2, 3, 2, 2, 1, 1, 1, 1, 2, 9, 1, 8, 1, 8, 8, 8, 7, 7, 7, 6, 6, 1, 6, 6, 6, 6, 9, 5, 5, 5, 4, 10, 4, 4, 4, 4,
         4, 2, 3, 2, 10, 2, 3, 3, 2, 2, 1, 2, 1;
             int(1..50)]
